10
0 94 11 87 29 63 28 77 16 11 
51 0 52 16 3 12 65 68 99 82 
41 72 0 74 61 83 50 80 31 63 
96 67 6 0 42 17 64 42 35 54 
27 25 10 71 0 1 10 55 82 65 
38 16 31 57 76 0 10 8 19 36 
50 96 88 78 24 26 0 22 32 88 
35 68 77 80 36 22 47 0 88 73 
68 68 92 79 8 24 67 6 0 66 
58 97 99 18 65 94 87 51 76 0 
